# Copyright 2014 - Anthony Awuley
# Brock University
# Computer Science Department

# GENERAL parameters
number-of-experiments                = 15
generations                          = 150
population-size                      = 4000
stop-when-solved                     = true
crossover-probability                = 0.9
mutation-probability                 = 0.1
selection-pressure                   = 0.9

# How many times the genotype is allowed to wrap
max-repairs                          = 1

# SELECTION
selection-operation                  = operator.operations.selection.TournamentSelection
tournament-size                      = 3
 
# REPRODUCTION operators
# Probability of crossover. State if the point of crossover is fixed on both chromosomes (The size will always be the same) or not
mutation_operation                   = Operator.Operations.IntFlipMutation
elite-size                           = 5
 
 
# The chromosomes are fixed length structures and doesnt change to mutation and crossover. 
# The initialiser will random create integer strings in this case of length specified
initial-chromosome-size              = 22
  
# FITNESS function - Fitness function requires the full package name
#fitness-function                    = fitnessevaluation.singleObjective.WeightedSum
#fitness-function                    = fitnessevaluation.simplefitness.FitnessExperimental
#fitness-function                    = fitnessevaluation.vrptw.WS
#fitness-function                    = fitnessevaluation.vrptw.SOR
#fitness-function                    = fitnessevaluation.vrptw.PR
#fitness-function                    = fitnessevaluation.eval.TSP
fitness-function                     = fitnessevaluation.eval.CVRP

# EC
main-class                           = main.Run

# INITIALISATION - Specifies which module to use as an initialiser initial population. 
initialiser                          = operator.initialiser.Initialise
#gene-representation                 = individuals.representation.VRPTW
gene-representation                  = individuals.representation.hybrid.TSP

# REPLACEMENT
replacement-operation                = operator.operations.replacement.Generational

# CROSSOVER MODULE
#crossover-operation                 = operator.crossover.CycleCrossover
crossover-operation                  = operator.crossover.UniformOrderCrossover

# MUTATION MODULE
mutation-operation                   = operator.mutation.Inversion
 

# Specification of output statistics files
number-of-individuals                = 1
#stats-operation                     = util.statistics.mop.ParethoStatistics
#stats-operation                     = util.statistics.mop.SumOfRankStatistics
#stats-operation                     = util.statistics.BasicStatistics
#stats-operation                     = util.statistics.sob.TSPStatistics
stats-operation                      = util.statistics.mop.CVRPHybridStatistics


NAME : eil23
COMMENT : (Eilon et al.)
TYPE : CVRP
DIMENSION : 23
EDGE_WEIGHT_TYPE : EUC_2D
nodes                                = 22
stat-out                             = eil23
vehicle-capacity                     = 4500
NODE_COORD_SECTION
1	266	235	0
2	295	272	125
3	301	258	84
4	309	260	60
5	217	274	500
6	218	278	300
7	282	267	175
8	242	249	350
9	230	262	150
10	249	268	1100
11	256	267	4100
12	265	257	225
13	267	242	300
14	259	265	250
15	315	233	500
16	329	252	150
17	318	252	100
18	329	224	250
19	267	213	120
20	275	192	600
21	303	201	500
22	208	217	175
23	326	181	75

DEPOT_SECTION

EOF
